p cnf 14 64
4 -6 -13 0
-7 -12 -14 0
7 11 12 0
-1 -6 -11 0
4 -9 -14 0
-8 11 14 0
11 13 14 0
4 10 -13 0
-3 4 -5 0
-1 -2 8 0
2 13 14 0
-9 12 14 0
2 8 14 0
5 -7 10 0
1 -5 8 0
2 -8 13 0
-1 12 -13 0
-4 6 -11 0
-6 -9 10 0
2 -5 11 0
2 4 -5 0
-4 -10 11 0
-2 4 -6 0
2 5 -13 0
-7 -11 12 0
-1 13 14 0
5 10 11 0
-1 -4 -14 0
-2 -7 -12 0
3 4 -7 0
-8 11 -12 0
9 -11 12 0
-4 -12 -13 0
-4 -11 14 0
-6 -7 -14 0
-6 -8 14 0
2 4 -8 0
-1 -8 12 0
2 3 -4 0
6 -9 13 0
-4 -7 8 0
-1 5 11 0
2 4 12 0
1 -8 -13 0
2 -11 -13 0
6 -10 13 0
4 -5 6 0
6 7 11 0
1 -9 14 0
-4 13 -14 0
-10 -11 -13 0
-5 -8 13 0
-3 12 13 0
1 -9 -13 0
-12 -13 14 0
-4 -8 13 0
-1 -5 -11 0
-3 -4 13 0
4 -8 10 0
6 -9 11 0
-8 9 -12 0
4 7 -8 0
1 8 14 0
3 -6 -10 0
